p cnf 22 8
e 1 0
a 2 0
e 3 0
a 4 5 0
e 6 0
a 7 0
e 8 9 0
a 10 11 0
e 12 13 0
a 14 0
e 15 0
a 16 17 18 0
e 19 20 21 0
a 22 0
19 17 -14 0
-11 -13 5 12 19 0
8 13 6 17 0
11 22 4 -18 17 0
19 18 13 4 -7 0
18 -5 2 0
-8 21 22 -9 0
10 -2 20 -19 0
